# GENERAL

log none
processors 6 4 1
units metal
boundary p p f
atom_style atomic
atom_modify map array sort 10000 0.0


# VARIABLES

variable lattice_const equal "4.080"
variable substrateZmax equal "12.240"
variable substrateXmax equal "44.97263"
variable substrateYmax equal "34.61995"
variable xInsert equal "17.309974"
variable yInsert equal "22.486316"
variable zInsertMin equal "62.240"
variable zInsertMax equal "72.240"
variable zBoxMax equal "72.24"
variable zRemove equal "62.24"
variable typeNewAtom equal "2"
variable incidentmeV equal "16.373"
variable velocityProjectile equal "-sqrt(v_incidentmeV)*0.6947"
variable SurfaceTemp equal "300"
variable PlasmaTemp equal "190"
variable PlasmaPressure equal "1.000"
variable incidentAngle equal "0.520"
variable StepsToDeposit equal "23665"
variable MinDistance equal "4.0"


# REGIONS

region simulationBoxRegion block 0.0 ${substrateXmax} 0.0 ${substrateYmax} 0.0 ${zBoxMax}
region substrateAtomsRegion block 0.0 ${substrateXmax} 0.0 ${substrateYmax} 0.0 ${substrateZmax}
region mobileSubstrateAtomsRegion block 0.0 ${substrateXmax} 0.0 ${substrateYmax} 5.0 ${substrateZmax}
region insertRegion block 0.0 ${substrateXmax} 0.0 ${substrateYmax} ${zInsertMin} ${zInsertMax}
region bulkRegion block 0.0 ${substrateXmax} 0.0 ${substrateYmax} ${substrateZmax} ${zRemove}
create_box 2 simulationBoxRegion


# GROUPS

group substrateGroup region substrateAtomsRegion
group mobileSubstrateAtomsGroup region mobileSubstrateAtomsRegion
group adAtomGroup type 2
print "--- Incident Angle: $(v_incidentAngle) rad, Surface Temperature: $(v_SurfaceTemp) K, Plasma Temperature: $(v_PlasmaTemp) K, Incident Energy: $(v_incidentmeV) meV, Pressure: $(v_PlasmaPressure) atm"


# INTERACTION

pair_style hybrid lj/cut 12.0 born 13.0
pair_coeff 1 1 lj/cut 0.229400 2.629000
pair_coeff 1 2 born 3592.500000 0.349160 0.000000 44.990000 -2481.300000 13.000000
pair_coeff 2 2 lj/cut 0.010423 3.400000
fix bottomWall all wall/reflect zlo 0.0
mass 1 197
mass 2 40


# THERMOSTAT

thermo_modify   lost ignore flush yes
fix             substrateLV mobileSubstrateAtomsGroup langevin $(v_SurfaceTemp) $(v_SurfaceTemp) 1.0 $(v_rand)
fix             substrateNVE mobileSubstrateAtomsGroup nve
thermo          1000
compute         temperatureOfMobileAtoms mobileSubstrateAtomsGroup temp
thermo_style    custom step cpu c_temperatureOfMobileAtoms pe etotal 
thermo_modify   lost ignore flush yes


# RUN

timestep 0.000250
fix adAtomNVEfix adAtomGroup nve
compute PotEnergy adAtomGroup pe/atom

# LOOP

variable imax equal 1000
variable i loop ${imax}
label LOOP_START

read_data ${inFolder}/thermal${SurfaceTemp}Au.dat add merge
group substrateGroup region substrateAtomsRegion
group mobileSubstrateAtomsGroup region mobileSubstrateAtomsRegion
group adAtomGroup type 2
delete_atoms group adAtomGroup
delete_atoms region bulkRegion
dump ArDump adAtomGroup custom 1000 ${outFolder}/flux${i}.lammpstrj type id x y z ix iy iz vx vy vz c_PotEnergy



variable rndm equal random(-100.0,100.0,7602)
variable veloX equal $(v_velocityProjectile*sin(v_incidentAngle)*sin(0.0628*v_rndm))
variable veloY equal $(v_velocityProjectile*sin(v_incidentAngle)*cos(0.0628*v_rndm))
variable veloZ equal $(v_velocityProjectile*cos(v_incidentAngle))
fix DepositAtoms adAtomGroup deposit 1 2 $(v_StepsToDeposit) 94752 region insertRegion &
vx $(v_veloX) $(v_veloX) &
vy $(v_veloY) $(v_veloY) &
vz $(v_veloZ) $(v_veloZ) &
near 4 attempt 10 id next
run 23668


variable rndm equal random(-100.0,100.0,2437)
variable veloX equal $(v_velocityProjectile*sin(v_incidentAngle)*sin(0.0628*v_rndm))
variable veloY equal $(v_velocityProjectile*sin(v_incidentAngle)*cos(0.0628*v_rndm))
variable veloZ equal $(v_velocityProjectile*cos(v_incidentAngle))
fix DepositAtoms adAtomGroup deposit 1 2 $(v_StepsToDeposit) 23059 region insertRegion &
vx $(v_veloX) $(v_veloX) &
vy $(v_veloY) $(v_veloY) &
vz $(v_veloZ) $(v_veloZ) &
near 4 attempt 10 id next
run 23657


variable rndm equal random(-100.0,100.0,679)
variable veloX equal $(v_velocityProjectile*sin(v_incidentAngle)*sin(0.0628*v_rndm))
variable veloY equal $(v_velocityProjectile*sin(v_incidentAngle)*cos(0.0628*v_rndm))
variable veloZ equal $(v_velocityProjectile*cos(v_incidentAngle))
fix DepositAtoms adAtomGroup deposit 1 2 $(v_StepsToDeposit) 31750 region insertRegion &
vx $(v_veloX) $(v_veloX) &
vy $(v_veloY) $(v_veloY) &
vz $(v_veloZ) $(v_veloZ) &
near 4 attempt 10 id next
run 23658


variable rndm equal random(-100.0,100.0,3158)
variable veloX equal $(v_velocityProjectile*sin(v_incidentAngle)*sin(0.0628*v_rndm))
variable veloY equal $(v_velocityProjectile*sin(v_incidentAngle)*cos(0.0628*v_rndm))
variable veloZ equal $(v_velocityProjectile*cos(v_incidentAngle))
fix DepositAtoms adAtomGroup deposit 1 2 $(v_StepsToDeposit) 22300 region insertRegion &
vx $(v_veloX) $(v_veloX) &
vy $(v_veloY) $(v_veloY) &
vz $(v_veloZ) $(v_veloZ) &
near 4 attempt 10 id next
run 23685


variable rndm equal random(-100.0,100.0,1043)
variable veloX equal $(v_velocityProjectile*sin(v_incidentAngle)*sin(0.0628*v_rndm))
variable veloY equal $(v_velocityProjectile*sin(v_incidentAngle)*cos(0.0628*v_rndm))
variable veloZ equal $(v_velocityProjectile*cos(v_incidentAngle))
fix DepositAtoms adAtomGroup deposit 1 2 $(v_StepsToDeposit) 30769 region insertRegion &
vx $(v_veloX) $(v_veloX) &
vy $(v_veloY) $(v_veloY) &
vz $(v_veloZ) $(v_veloZ) &
near 4 attempt 10 id next
run 23672


variable rndm equal random(-100.0,100.0,8456)
variable veloX equal $(v_velocityProjectile*sin(v_incidentAngle)*sin(0.0628*v_rndm))
variable veloY equal $(v_velocityProjectile*sin(v_incidentAngle)*cos(0.0628*v_rndm))
variable veloZ equal $(v_velocityProjectile*cos(v_incidentAngle))
fix DepositAtoms adAtomGroup deposit 1 2 $(v_StepsToDeposit) 44310 region insertRegion &
vx $(v_veloX) $(v_veloX) &
vy $(v_veloY) $(v_veloY) &
vz $(v_veloZ) $(v_veloZ) &
near 4 attempt 10 id next
run 23649


variable rndm equal random(-100.0,100.0,4665)
variable veloX equal $(v_velocityProjectile*sin(v_incidentAngle)*sin(0.0628*v_rndm))
variable veloY equal $(v_velocityProjectile*sin(v_incidentAngle)*cos(0.0628*v_rndm))
variable veloZ equal $(v_velocityProjectile*cos(v_incidentAngle))
fix DepositAtoms adAtomGroup deposit 1 2 $(v_StepsToDeposit) 48522 region insertRegion &
vx $(v_veloX) $(v_veloX) &
vy $(v_veloY) $(v_veloY) &
vz $(v_veloZ) $(v_veloZ) &
near 4 attempt 10 id next
run 23681


variable rndm equal random(-100.0,100.0,4957)
variable veloX equal $(v_velocityProjectile*sin(v_incidentAngle)*sin(0.0628*v_rndm))
variable veloY equal $(v_velocityProjectile*sin(v_incidentAngle)*cos(0.0628*v_rndm))
variable veloZ equal $(v_velocityProjectile*cos(v_incidentAngle))
fix DepositAtoms adAtomGroup deposit 1 2 $(v_StepsToDeposit) 19249 region insertRegion &
vx $(v_veloX) $(v_veloX) &
vy $(v_veloY) $(v_veloY) &
vz $(v_veloZ) $(v_veloZ) &
near 4 attempt 10 id next
run 23681


variable rndm equal random(-100.0,100.0,8885)
variable veloX equal $(v_velocityProjectile*sin(v_incidentAngle)*sin(0.0628*v_rndm))
variable veloY equal $(v_velocityProjectile*sin(v_incidentAngle)*cos(0.0628*v_rndm))
variable veloZ equal $(v_velocityProjectile*cos(v_incidentAngle))
fix DepositAtoms adAtomGroup deposit 1 2 $(v_StepsToDeposit) 42379 region insertRegion &
vx $(v_veloX) $(v_veloX) &
vy $(v_veloY) $(v_veloY) &
vz $(v_veloZ) $(v_veloZ) &
near 4 attempt 10 id next
run 23645


variable rndm equal random(-100.0,100.0,9062)
variable veloX equal $(v_velocityProjectile*sin(v_incidentAngle)*sin(0.0628*v_rndm))
variable veloY equal $(v_velocityProjectile*sin(v_incidentAngle)*cos(0.0628*v_rndm))
variable veloZ equal $(v_velocityProjectile*cos(v_incidentAngle))
fix DepositAtoms adAtomGroup deposit 1 2 $(v_StepsToDeposit) 36477 region insertRegion &
vx $(v_veloX) $(v_veloX) &
vy $(v_veloY) $(v_veloY) &
vz $(v_veloZ) $(v_veloZ) &
near 4 attempt 10 id next
run 23647


variable rndm equal random(-100.0,100.0,3595)
variable veloX equal $(v_velocityProjectile*sin(v_incidentAngle)*sin(0.0628*v_rndm))
variable veloY equal $(v_velocityProjectile*sin(v_incidentAngle)*cos(0.0628*v_rndm))
variable veloZ equal $(v_velocityProjectile*cos(v_incidentAngle))
fix DepositAtoms adAtomGroup deposit 1 2 $(v_StepsToDeposit) 87081 region insertRegion &
vx $(v_veloX) $(v_veloX) &
vy $(v_veloY) $(v_veloY) &
vz $(v_veloZ) $(v_veloZ) &
near 4 attempt 10 id next
run 23673


variable rndm equal random(-100.0,100.0,8797)
variable veloX equal $(v_velocityProjectile*sin(v_incidentAngle)*sin(0.0628*v_rndm))
variable veloY equal $(v_velocityProjectile*sin(v_incidentAngle)*cos(0.0628*v_rndm))
variable veloZ equal $(v_velocityProjectile*cos(v_incidentAngle))
fix DepositAtoms adAtomGroup deposit 1 2 $(v_StepsToDeposit) 3272 region insertRegion &
vx $(v_veloX) $(v_veloX) &
vy $(v_veloY) $(v_veloY) &
vz $(v_veloZ) $(v_veloZ) &
near 4 attempt 10 id next
run 23674


variable rndm equal random(-100.0,100.0,7452)
variable veloX equal $(v_velocityProjectile*sin(v_incidentAngle)*sin(0.0628*v_rndm))
variable veloY equal $(v_velocityProjectile*sin(v_incidentAngle)*cos(0.0628*v_rndm))
variable veloZ equal $(v_velocityProjectile*cos(v_incidentAngle))
fix DepositAtoms adAtomGroup deposit 1 2 $(v_StepsToDeposit) 32167 region insertRegion &
vx $(v_veloX) $(v_veloX) &
vy $(v_veloY) $(v_veloY) &
vz $(v_veloZ) $(v_veloZ) &
near 4 attempt 10 id next
run 23660


variable rndm equal random(-100.0,100.0,8485)
variable veloX equal $(v_velocityProjectile*sin(v_incidentAngle)*sin(0.0628*v_rndm))
variable veloY equal $(v_velocityProjectile*sin(v_incidentAngle)*cos(0.0628*v_rndm))
variable veloZ equal $(v_velocityProjectile*cos(v_incidentAngle))
fix DepositAtoms adAtomGroup deposit 1 2 $(v_StepsToDeposit) 46391 region insertRegion &
vx $(v_veloX) $(v_veloX) &
vy $(v_veloY) $(v_veloY) &
vz $(v_veloZ) $(v_veloZ) &
near 4 attempt 10 id next
run 23679


variable rndm equal random(-100.0,100.0,3906)
variable veloX equal $(v_velocityProjectile*sin(v_incidentAngle)*sin(0.0628*v_rndm))
variable veloY equal $(v_velocityProjectile*sin(v_incidentAngle)*cos(0.0628*v_rndm))
variable veloZ equal $(v_velocityProjectile*cos(v_incidentAngle))
fix DepositAtoms adAtomGroup deposit 1 2 $(v_StepsToDeposit) 90559 region insertRegion &
vx $(v_veloX) $(v_veloX) &
vy $(v_veloY) $(v_veloY) &
vz $(v_veloZ) $(v_veloZ) &
near 4 attempt 10 id next
run 23660


variable rndm equal random(-100.0,100.0,2203)
variable veloX equal $(v_velocityProjectile*sin(v_incidentAngle)*sin(0.0628*v_rndm))
variable veloY equal $(v_velocityProjectile*sin(v_incidentAngle)*cos(0.0628*v_rndm))
variable veloZ equal $(v_velocityProjectile*cos(v_incidentAngle))
fix DepositAtoms adAtomGroup deposit 1 2 $(v_StepsToDeposit) 63741 region insertRegion &
vx $(v_veloX) $(v_veloX) &
vy $(v_veloY) $(v_veloY) &
vz $(v_veloZ) $(v_veloZ) &
near 4 attempt 10 id next
run 23647


variable rndm equal random(-100.0,100.0,3435)
variable veloX equal $(v_velocityProjectile*sin(v_incidentAngle)*sin(0.0628*v_rndm))
variable veloY equal $(v_velocityProjectile*sin(v_incidentAngle)*cos(0.0628*v_rndm))
variable veloZ equal $(v_velocityProjectile*cos(v_incidentAngle))
fix DepositAtoms adAtomGroup deposit 1 2 $(v_StepsToDeposit) 74307 region insertRegion &
vx $(v_veloX) $(v_veloX) &
vy $(v_veloY) $(v_veloY) &
vz $(v_veloZ) $(v_veloZ) &
near 4 attempt 10 id next
run 23658


variable rndm equal random(-100.0,100.0,7298)
variable veloX equal $(v_velocityProjectile*sin(v_incidentAngle)*sin(0.0628*v_rndm))
variable veloY equal $(v_velocityProjectile*sin(v_incidentAngle)*cos(0.0628*v_rndm))
variable veloZ equal $(v_velocityProjectile*cos(v_incidentAngle))
fix DepositAtoms adAtomGroup deposit 1 2 $(v_StepsToDeposit) 88246 region insertRegion &
vx $(v_veloX) $(v_veloX) &
vy $(v_veloY) $(v_veloY) &
vz $(v_veloZ) $(v_veloZ) &
near 4 attempt 10 id next
run 23668


variable rndm equal random(-100.0,100.0,9959)
variable veloX equal $(v_velocityProjectile*sin(v_incidentAngle)*sin(0.0628*v_rndm))
variable veloY equal $(v_velocityProjectile*sin(v_incidentAngle)*cos(0.0628*v_rndm))
variable veloZ equal $(v_velocityProjectile*cos(v_incidentAngle))
fix DepositAtoms adAtomGroup deposit 1 2 $(v_StepsToDeposit) 62707 region insertRegion &
vx $(v_veloX) $(v_veloX) &
vy $(v_veloY) $(v_veloY) &
vz $(v_veloZ) $(v_veloZ) &
near 4 attempt 10 id next
run 23665


variable rndm equal random(-100.0,100.0,1819)
variable veloX equal $(v_velocityProjectile*sin(v_incidentAngle)*sin(0.0628*v_rndm))
variable veloY equal $(v_velocityProjectile*sin(v_incidentAngle)*cos(0.0628*v_rndm))
variable veloZ equal $(v_velocityProjectile*cos(v_incidentAngle))
fix DepositAtoms adAtomGroup deposit 1 2 $(v_StepsToDeposit) 58701 region insertRegion &
vx $(v_veloX) $(v_veloX) &
vy $(v_veloY) $(v_veloY) &
vz $(v_veloZ) $(v_veloZ) &
near 4 attempt 10 id next
run 23666


variable rndm equal random(-100.0,100.0,1186)
variable veloX equal $(v_velocityProjectile*sin(v_incidentAngle)*sin(0.0628*v_rndm))
variable veloY equal $(v_velocityProjectile*sin(v_incidentAngle)*cos(0.0628*v_rndm))
variable veloZ equal $(v_velocityProjectile*cos(v_incidentAngle))
fix DepositAtoms adAtomGroup deposit 1 2 $(v_StepsToDeposit) 67226 region insertRegion &
vx $(v_veloX) $(v_veloX) &
vy $(v_veloY) $(v_veloY) &
vz $(v_veloZ) $(v_veloZ) &
near 4 attempt 10 id next
run 23659


variable rndm equal random(-100.0,100.0,4776)
variable veloX equal $(v_velocityProjectile*sin(v_incidentAngle)*sin(0.0628*v_rndm))
variable veloY equal $(v_velocityProjectile*sin(v_incidentAngle)*cos(0.0628*v_rndm))
variable veloZ equal $(v_velocityProjectile*cos(v_incidentAngle))
fix DepositAtoms adAtomGroup deposit 1 2 $(v_StepsToDeposit) 45818 region insertRegion &
vx $(v_veloX) $(v_veloX) &
vy $(v_veloY) $(v_veloY) &
vz $(v_veloZ) $(v_veloZ) &
near 4 attempt 10 id next
run 23673


variable rndm equal random(-100.0,100.0,7322)
variable veloX equal $(v_velocityProjectile*sin(v_incidentAngle)*sin(0.0628*v_rndm))
variable veloY equal $(v_velocityProjectile*sin(v_incidentAngle)*cos(0.0628*v_rndm))
variable veloZ equal $(v_velocityProjectile*cos(v_incidentAngle))
fix DepositAtoms adAtomGroup deposit 1 2 $(v_StepsToDeposit) 41007 region insertRegion &
vx $(v_veloX) $(v_veloX) &
vy $(v_veloY) $(v_veloY) &
vz $(v_veloZ) $(v_veloZ) &
near 4 attempt 10 id next
run 23653


variable rndm equal random(-100.0,100.0,4820)
variable veloX equal $(v_velocityProjectile*sin(v_incidentAngle)*sin(0.0628*v_rndm))
variable veloY equal $(v_velocityProjectile*sin(v_incidentAngle)*cos(0.0628*v_rndm))
variable veloZ equal $(v_velocityProjectile*cos(v_incidentAngle))
fix DepositAtoms adAtomGroup deposit 1 2 $(v_StepsToDeposit) 24658 region insertRegion &
vx $(v_veloX) $(v_veloX) &
vy $(v_veloY) $(v_veloY) &
vz $(v_veloZ) $(v_veloZ) &
near 4 attempt 10 id next
run 23651


variable rndm equal random(-100.0,100.0,3404)
variable veloX equal $(v_velocityProjectile*sin(v_incidentAngle)*sin(0.0628*v_rndm))
variable veloY equal $(v_velocityProjectile*sin(v_incidentAngle)*cos(0.0628*v_rndm))
variable veloZ equal $(v_velocityProjectile*cos(v_incidentAngle))
fix DepositAtoms adAtomGroup deposit 1 2 $(v_StepsToDeposit) 61337 region insertRegion &
vx $(v_veloX) $(v_veloX) &
vy $(v_veloY) $(v_veloY) &
vz $(v_veloZ) $(v_veloZ) &
near 4 attempt 10 id next
run 23660


variable rndm equal random(-100.0,100.0,3930)
variable veloX equal $(v_velocityProjectile*sin(v_incidentAngle)*sin(0.0628*v_rndm))
variable veloY equal $(v_velocityProjectile*sin(v_incidentAngle)*cos(0.0628*v_rndm))
variable veloZ equal $(v_velocityProjectile*cos(v_incidentAngle))
fix DepositAtoms adAtomGroup deposit 1 2 $(v_StepsToDeposit) 90984 region insertRegion &
vx $(v_veloX) $(v_veloX) &
vy $(v_veloY) $(v_veloY) &
vz $(v_veloZ) $(v_veloZ) &
near 4 attempt 10 id next
run 23646


variable rndm equal random(-100.0,100.0,8277)
variable veloX equal $(v_velocityProjectile*sin(v_incidentAngle)*sin(0.0628*v_rndm))
variable veloY equal $(v_velocityProjectile*sin(v_incidentAngle)*cos(0.0628*v_rndm))
variable veloZ equal $(v_velocityProjectile*cos(v_incidentAngle))
fix DepositAtoms adAtomGroup deposit 1 2 $(v_StepsToDeposit) 29779 region insertRegion &
vx $(v_veloX) $(v_veloX) &
vy $(v_veloY) $(v_veloY) &
vz $(v_veloZ) $(v_veloZ) &
near 4 attempt 10 id next
run 23648


variable rndm equal random(-100.0,100.0,6937)
variable veloX equal $(v_velocityProjectile*sin(v_incidentAngle)*sin(0.0628*v_rndm))
variable veloY equal $(v_velocityProjectile*sin(v_incidentAngle)*cos(0.0628*v_rndm))
variable veloZ equal $(v_velocityProjectile*cos(v_incidentAngle))
fix DepositAtoms adAtomGroup deposit 1 2 $(v_StepsToDeposit) 23984 region insertRegion &
vx $(v_veloX) $(v_veloX) &
vy $(v_veloY) $(v_veloY) &
vz $(v_veloZ) $(v_veloZ) &
near 4 attempt 10 id next
run 23684


variable rndm equal random(-100.0,100.0,4905)
variable veloX equal $(v_velocityProjectile*sin(v_incidentAngle)*sin(0.0628*v_rndm))
variable veloY equal $(v_velocityProjectile*sin(v_incidentAngle)*cos(0.0628*v_rndm))
variable veloZ equal $(v_velocityProjectile*cos(v_incidentAngle))
fix DepositAtoms adAtomGroup deposit 1 2 $(v_StepsToDeposit) 40569 region insertRegion &
vx $(v_veloX) $(v_veloX) &
vy $(v_veloY) $(v_veloY) &
vz $(v_veloZ) $(v_veloZ) &
near 4 attempt 10 id next
run 23663


variable rndm equal random(-100.0,100.0,7362)
variable veloX equal $(v_velocityProjectile*sin(v_incidentAngle)*sin(0.0628*v_rndm))
variable veloY equal $(v_velocityProjectile*sin(v_incidentAngle)*cos(0.0628*v_rndm))
variable veloZ equal $(v_velocityProjectile*cos(v_incidentAngle))
fix DepositAtoms adAtomGroup deposit 1 2 $(v_StepsToDeposit) 93932 region insertRegion &
vx $(v_veloX) $(v_veloX) &
vy $(v_veloY) $(v_veloY) &
vz $(v_veloZ) $(v_veloZ) &
near 4 attempt 10 id next
run 23685


variable rndm equal random(-100.0,100.0,5747)
variable veloX equal $(v_velocityProjectile*sin(v_incidentAngle)*sin(0.0628*v_rndm))
variable veloY equal $(v_velocityProjectile*sin(v_incidentAngle)*cos(0.0628*v_rndm))
variable veloZ equal $(v_velocityProjectile*cos(v_incidentAngle))
fix DepositAtoms adAtomGroup deposit 1 2 $(v_StepsToDeposit) 84560 region insertRegion &
vx $(v_veloX) $(v_veloX) &
vy $(v_veloY) $(v_veloY) &
vz $(v_veloZ) $(v_veloZ) &
near 4 attempt 10 id next
run 23653


variable rndm equal random(-100.0,100.0,9396)
variable veloX equal $(v_velocityProjectile*sin(v_incidentAngle)*sin(0.0628*v_rndm))
variable veloY equal $(v_velocityProjectile*sin(v_incidentAngle)*cos(0.0628*v_rndm))
variable veloZ equal $(v_velocityProjectile*cos(v_incidentAngle))
fix DepositAtoms adAtomGroup deposit 1 2 $(v_StepsToDeposit) 44332 region insertRegion &
vx $(v_veloX) $(v_veloX) &
vy $(v_veloY) $(v_veloY) &
vz $(v_veloZ) $(v_veloZ) &
near 4 attempt 10 id next
run 23648


variable rndm equal random(-100.0,100.0,1100)
variable veloX equal $(v_velocityProjectile*sin(v_incidentAngle)*sin(0.0628*v_rndm))
variable veloY equal $(v_velocityProjectile*sin(v_incidentAngle)*cos(0.0628*v_rndm))
variable veloZ equal $(v_velocityProjectile*cos(v_incidentAngle))
fix DepositAtoms adAtomGroup deposit 1 2 $(v_StepsToDeposit) 60822 region insertRegion &
vx $(v_veloX) $(v_veloX) &
vy $(v_veloY) $(v_veloY) &
vz $(v_veloZ) $(v_veloZ) &
near 4 attempt 10 id next
run 23665

delete_atoms group all
undump ArDump
next i
jump SELF LOOP_START
