# GENERAL

log none
processors 6 4 1
units metal
boundary p p f
atom_style atomic
atom_modify map array sort 10000 0.0


# VARIABLES

variable lattice_const equal "4.080"
variable substrateZmax equal "12.240"
variable substrateXmax equal "44.97263"
variable substrateYmax equal "34.61995"
variable xInsert equal "17.309974"
variable yInsert equal "22.486316"
variable zInsertMin equal "62.240"
variable zInsertMax equal "72.240"
variable zBoxMax equal "72.24"
variable zRemove equal "62.24"
variable typeNewAtom equal "2"
variable incidentmeV equal "25.852"
variable velocityProjectile equal "-sqrt(v_incidentmeV)*0.6947"
variable SurfaceTemp equal "190"
variable PlasmaTemp equal "300"
variable PlasmaPressure equal "1.000"
variable incidentAngle equal "0.520"
variable StepsToDeposit equal "29737"
variable MinDistance equal "4.0"


# REGIONS

region simulationBoxRegion block 0.0 ${substrateXmax} 0.0 ${substrateYmax} 0.0 ${zBoxMax}
region substrateAtomsRegion block 0.0 ${substrateXmax} 0.0 ${substrateYmax} 0.0 ${substrateZmax}
region mobileSubstrateAtomsRegion block 0.0 ${substrateXmax} 0.0 ${substrateYmax} 5.0 ${substrateZmax}
region insertRegion block 0.0 ${substrateXmax} 0.0 ${substrateYmax} ${zInsertMin} ${zInsertMax}
region bulkRegion block 0.0 ${substrateXmax} 0.0 ${substrateYmax} ${substrateZmax} ${zRemove}
create_box 2 simulationBoxRegion


# GROUPS

group substrateGroup region substrateAtomsRegion
group mobileSubstrateAtomsGroup region mobileSubstrateAtomsRegion
group adAtomGroup type 2
print "--- Incident Angle: $(v_incidentAngle) rad, Surface Temperature: $(v_SurfaceTemp) K, Plasma Temperature: $(v_PlasmaTemp) K, Incident Energy: $(v_incidentmeV) meV, Pressure: $(v_PlasmaPressure) atm"


# INTERACTION

pair_style hybrid lj/cut 12.0 born 13.0
pair_coeff 1 1 lj/cut 0.229400 2.629000
pair_coeff 1 2 born 3592.500000 0.349160 0.000000 44.990000 -2481.300000 13.000000
pair_coeff 2 2 lj/cut 0.010423 3.400000
fix bottomWall all wall/reflect zlo 0.0
mass 1 197
mass 2 40


# THERMOSTAT

thermo_modify   lost ignore flush yes
fix             substrateLV mobileSubstrateAtomsGroup langevin $(v_SurfaceTemp) $(v_SurfaceTemp) 1.0 $(v_rand)
fix             substrateNVE mobileSubstrateAtomsGroup nve
thermo          1000
compute         temperatureOfMobileAtoms mobileSubstrateAtomsGroup temp
thermo_style    custom step cpu c_temperatureOfMobileAtoms pe etotal 
thermo_modify   lost ignore flush yes


# RUN

timestep 0.000250
fix adAtomNVEfix adAtomGroup nve
compute PotEnergy adAtomGroup pe/atom

# LOOP

variable imax equal 1000
variable i loop ${imax}
label LOOP_START

read_data ${inFolder}/thermal${SurfaceTemp}Au.dat add merge
group substrateGroup region substrateAtomsRegion
group mobileSubstrateAtomsGroup region mobileSubstrateAtomsRegion
group adAtomGroup type 2
delete_atoms group adAtomGroup
delete_atoms region bulkRegion
dump ArDump adAtomGroup custom 1000 ${outFolder}/flux${i}.lammpstrj type id x y z ix iy iz vx vy vz c_PotEnergy



variable rndm equal random(-100.0,100.0,906)
variable veloX equal $(v_velocityProjectile*sin(v_incidentAngle)*sin(0.0628*v_rndm))
variable veloY equal $(v_velocityProjectile*sin(v_incidentAngle)*cos(0.0628*v_rndm))
variable veloZ equal $(v_velocityProjectile*cos(v_incidentAngle))
fix DepositAtoms adAtomGroup deposit 1 2 $(v_StepsToDeposit) 9419 region insertRegion &
vx $(v_veloX) $(v_veloX) &
vy $(v_veloY) $(v_veloY) &
vz $(v_veloZ) $(v_veloZ) &
near 4 attempt 10 id next
run 29749


variable rndm equal random(-100.0,100.0,6789)
variable veloX equal $(v_velocityProjectile*sin(v_incidentAngle)*sin(0.0628*v_rndm))
variable veloY equal $(v_velocityProjectile*sin(v_incidentAngle)*cos(0.0628*v_rndm))
variable veloZ equal $(v_velocityProjectile*cos(v_incidentAngle))
fix DepositAtoms adAtomGroup deposit 1 2 $(v_StepsToDeposit) 70787 region insertRegion &
vx $(v_veloX) $(v_veloX) &
vy $(v_veloY) $(v_veloY) &
vz $(v_veloZ) $(v_veloZ) &
near 4 attempt 10 id next
run 29733


variable rndm equal random(-100.0,100.0,7421)
variable veloX equal $(v_velocityProjectile*sin(v_incidentAngle)*sin(0.0628*v_rndm))
variable veloY equal $(v_velocityProjectile*sin(v_incidentAngle)*cos(0.0628*v_rndm))
variable veloZ equal $(v_velocityProjectile*cos(v_incidentAngle))
fix DepositAtoms adAtomGroup deposit 1 2 $(v_StepsToDeposit) 81627 region insertRegion &
vx $(v_veloX) $(v_veloX) &
vy $(v_veloY) $(v_veloY) &
vz $(v_veloZ) $(v_veloZ) &
near 4 attempt 10 id next
run 29735


variable rndm equal random(-100.0,100.0,318)
variable veloX equal $(v_velocityProjectile*sin(v_incidentAngle)*sin(0.0628*v_rndm))
variable veloY equal $(v_velocityProjectile*sin(v_incidentAngle)*cos(0.0628*v_rndm))
variable veloZ equal $(v_velocityProjectile*cos(v_incidentAngle))
fix DepositAtoms adAtomGroup deposit 1 2 $(v_StepsToDeposit) 69564 region insertRegion &
vx $(v_veloX) $(v_veloX) &
vy $(v_veloY) $(v_veloY) &
vz $(v_veloZ) $(v_veloZ) &
near 4 attempt 10 id next
run 29750


variable rndm equal random(-100.0,100.0,9970)
variable veloX equal $(v_velocityProjectile*sin(v_incidentAngle)*sin(0.0628*v_rndm))
variable veloY equal $(v_velocityProjectile*sin(v_incidentAngle)*cos(0.0628*v_rndm))
variable veloZ equal $(v_velocityProjectile*cos(v_incidentAngle))
fix DepositAtoms adAtomGroup deposit 1 2 $(v_StepsToDeposit) 38493 region insertRegion &
vx $(v_veloX) $(v_veloX) &
vy $(v_veloY) $(v_veloY) &
vz $(v_veloZ) $(v_veloZ) &
near 4 attempt 10 id next
run 29750


variable rndm equal random(-100.0,100.0,8255)
variable veloX equal $(v_velocityProjectile*sin(v_incidentAngle)*sin(0.0628*v_rndm))
variable veloY equal $(v_velocityProjectile*sin(v_incidentAngle)*cos(0.0628*v_rndm))
variable veloZ equal $(v_velocityProjectile*cos(v_incidentAngle))
fix DepositAtoms adAtomGroup deposit 1 2 $(v_StepsToDeposit) 1523 region insertRegion &
vx $(v_veloX) $(v_veloX) &
vy $(v_veloY) $(v_veloY) &
vz $(v_veloZ) $(v_veloZ) &
near 4 attempt 10 id next
run 29733


variable rndm equal random(-100.0,100.0,3771)
variable veloX equal $(v_velocityProjectile*sin(v_incidentAngle)*sin(0.0628*v_rndm))
variable veloY equal $(v_velocityProjectile*sin(v_incidentAngle)*cos(0.0628*v_rndm))
variable veloZ equal $(v_velocityProjectile*cos(v_incidentAngle))
fix DepositAtoms adAtomGroup deposit 1 2 $(v_StepsToDeposit) 7195 region insertRegion &
vx $(v_veloX) $(v_veloX) &
vy $(v_veloY) $(v_veloY) &
vz $(v_veloZ) $(v_veloZ) &
near 4 attempt 10 id next
run 29743


variable rndm equal random(-100.0,100.0,6742)
variable veloX equal $(v_velocityProjectile*sin(v_incidentAngle)*sin(0.0628*v_rndm))
variable veloY equal $(v_velocityProjectile*sin(v_incidentAngle)*cos(0.0628*v_rndm))
variable veloZ equal $(v_velocityProjectile*cos(v_incidentAngle))
fix DepositAtoms adAtomGroup deposit 1 2 $(v_StepsToDeposit) 50291 region insertRegion &
vx $(v_veloX) $(v_veloX) &
vy $(v_veloY) $(v_veloY) &
vz $(v_veloZ) $(v_veloZ) &
near 4 attempt 10 id next
run 29755


variable rndm equal random(-100.0,100.0,7486)
variable veloX equal $(v_velocityProjectile*sin(v_incidentAngle)*sin(0.0628*v_rndm))
variable veloY equal $(v_velocityProjectile*sin(v_incidentAngle)*cos(0.0628*v_rndm))
variable veloZ equal $(v_velocityProjectile*cos(v_incidentAngle))
fix DepositAtoms adAtomGroup deposit 1 2 $(v_StepsToDeposit) 42517 region insertRegion &
vx $(v_veloX) $(v_veloX) &
vy $(v_veloY) $(v_veloY) &
vz $(v_veloZ) $(v_veloZ) &
near 4 attempt 10 id next
run 29720


variable rndm equal random(-100.0,100.0,949)
variable veloX equal $(v_velocityProjectile*sin(v_incidentAngle)*sin(0.0628*v_rndm))
variable veloY equal $(v_velocityProjectile*sin(v_incidentAngle)*cos(0.0628*v_rndm))
variable veloZ equal $(v_velocityProjectile*cos(v_incidentAngle))
fix DepositAtoms adAtomGroup deposit 1 2 $(v_StepsToDeposit) 76548 region insertRegion &
vx $(v_veloX) $(v_veloX) &
vy $(v_veloY) $(v_veloY) &
vz $(v_veloZ) $(v_veloZ) &
near 4 attempt 10 id next
run 29742


variable rndm equal random(-100.0,100.0,3833)
variable veloX equal $(v_velocityProjectile*sin(v_incidentAngle)*sin(0.0628*v_rndm))
variable veloY equal $(v_velocityProjectile*sin(v_incidentAngle)*cos(0.0628*v_rndm))
variable veloZ equal $(v_velocityProjectile*cos(v_incidentAngle))
fix DepositAtoms adAtomGroup deposit 1 2 $(v_StepsToDeposit) 89635 region insertRegion &
vx $(v_veloX) $(v_veloX) &
vy $(v_veloY) $(v_veloY) &
vz $(v_veloZ) $(v_veloZ) &
near 4 attempt 10 id next
run 29726


variable rndm equal random(-100.0,100.0,787)
variable veloX equal $(v_velocityProjectile*sin(v_incidentAngle)*sin(0.0628*v_rndm))
variable veloY equal $(v_velocityProjectile*sin(v_incidentAngle)*cos(0.0628*v_rndm))
variable veloZ equal $(v_velocityProjectile*cos(v_incidentAngle))
fix DepositAtoms adAtomGroup deposit 1 2 $(v_StepsToDeposit) 56682 region insertRegion &
vx $(v_veloX) $(v_veloX) &
vy $(v_veloY) $(v_veloY) &
vz $(v_veloZ) $(v_veloZ) &
near 4 attempt 10 id next
run 29742


variable rndm equal random(-100.0,100.0,1054)
variable veloX equal $(v_velocityProjectile*sin(v_incidentAngle)*sin(0.0628*v_rndm))
variable veloY equal $(v_velocityProjectile*sin(v_incidentAngle)*cos(0.0628*v_rndm))
variable veloZ equal $(v_velocityProjectile*cos(v_incidentAngle))
fix DepositAtoms adAtomGroup deposit 1 2 $(v_StepsToDeposit) 66837 region insertRegion &
vx $(v_veloX) $(v_veloX) &
vy $(v_veloY) $(v_veloY) &
vz $(v_veloZ) $(v_veloZ) &
near 4 attempt 10 id next
run 29724


variable rndm equal random(-100.0,100.0,5600)
variable veloX equal $(v_velocityProjectile*sin(v_incidentAngle)*sin(0.0628*v_rndm))
variable veloY equal $(v_velocityProjectile*sin(v_incidentAngle)*cos(0.0628*v_rndm))
variable veloZ equal $(v_velocityProjectile*cos(v_incidentAngle))
fix DepositAtoms adAtomGroup deposit 1 2 $(v_StepsToDeposit) 33987 region insertRegion &
vx $(v_veloX) $(v_veloX) &
vy $(v_veloY) $(v_veloY) &
vz $(v_veloZ) $(v_veloZ) &
near 4 attempt 10 id next
run 29741


variable rndm equal random(-100.0,100.0,6941)
variable veloX equal $(v_velocityProjectile*sin(v_incidentAngle)*sin(0.0628*v_rndm))
variable veloY equal $(v_velocityProjectile*sin(v_incidentAngle)*cos(0.0628*v_rndm))
variable veloZ equal $(v_velocityProjectile*cos(v_incidentAngle))
fix DepositAtoms adAtomGroup deposit 1 2 $(v_StepsToDeposit) 42080 region insertRegion &
vx $(v_veloX) $(v_veloX) &
vy $(v_veloY) $(v_veloY) &
vz $(v_veloZ) $(v_veloZ) &
near 4 attempt 10 id next
run 29739


variable rndm equal random(-100.0,100.0,2156)
variable veloX equal $(v_velocityProjectile*sin(v_incidentAngle)*sin(0.0628*v_rndm))
variable veloY equal $(v_velocityProjectile*sin(v_incidentAngle)*cos(0.0628*v_rndm))
variable veloZ equal $(v_velocityProjectile*cos(v_incidentAngle))
fix DepositAtoms adAtomGroup deposit 1 2 $(v_StepsToDeposit) 58179 region insertRegion &
vx $(v_veloX) $(v_veloX) &
vy $(v_veloY) $(v_veloY) &
vz $(v_veloZ) $(v_veloZ) &
near 4 attempt 10 id next
run 29756


variable rndm equal random(-100.0,100.0,277)
variable veloX equal $(v_velocityProjectile*sin(v_incidentAngle)*sin(0.0628*v_rndm))
variable veloY equal $(v_velocityProjectile*sin(v_incidentAngle)*cos(0.0628*v_rndm))
variable veloZ equal $(v_velocityProjectile*cos(v_incidentAngle))
fix DepositAtoms adAtomGroup deposit 1 2 $(v_StepsToDeposit) 17445 region insertRegion &
vx $(v_veloX) $(v_veloX) &
vy $(v_veloY) $(v_veloY) &
vz $(v_veloZ) $(v_veloZ) &
near 4 attempt 10 id next
run 29733


variable rndm equal random(-100.0,100.0,6264)
variable veloX equal $(v_velocityProjectile*sin(v_incidentAngle)*sin(0.0628*v_rndm))
variable veloY equal $(v_velocityProjectile*sin(v_incidentAngle)*cos(0.0628*v_rndm))
variable veloZ equal $(v_velocityProjectile*cos(v_incidentAngle))
fix DepositAtoms adAtomGroup deposit 1 2 $(v_StepsToDeposit) 38778 region insertRegion &
vx $(v_veloX) $(v_veloX) &
vy $(v_veloY) $(v_veloY) &
vz $(v_veloZ) $(v_veloZ) &
near 4 attempt 10 id next
run 29728


variable rndm equal random(-100.0,100.0,7526)
variable veloX equal $(v_velocityProjectile*sin(v_incidentAngle)*sin(0.0628*v_rndm))
variable veloY equal $(v_velocityProjectile*sin(v_incidentAngle)*cos(0.0628*v_rndm))
variable veloZ equal $(v_velocityProjectile*cos(v_incidentAngle))
fix DepositAtoms adAtomGroup deposit 1 2 $(v_StepsToDeposit) 58596 region insertRegion &
vx $(v_veloX) $(v_veloX) &
vy $(v_veloY) $(v_veloY) &
vz $(v_veloZ) $(v_veloZ) &
near 4 attempt 10 id next
run 29736


variable rndm equal random(-100.0,100.0,5876)
variable veloX equal $(v_velocityProjectile*sin(v_incidentAngle)*sin(0.0628*v_rndm))
variable veloY equal $(v_velocityProjectile*sin(v_incidentAngle)*cos(0.0628*v_rndm))
variable veloZ equal $(v_velocityProjectile*cos(v_incidentAngle))
fix DepositAtoms adAtomGroup deposit 1 2 $(v_StepsToDeposit) 76452 region insertRegion &
vx $(v_veloX) $(v_veloX) &
vy $(v_veloY) $(v_veloY) &
vz $(v_veloZ) $(v_veloZ) &
near 4 attempt 10 id next
run 29754


variable rndm equal random(-100.0,100.0,2225)
variable veloX equal $(v_velocityProjectile*sin(v_incidentAngle)*sin(0.0628*v_rndm))
variable veloY equal $(v_velocityProjectile*sin(v_incidentAngle)*cos(0.0628*v_rndm))
variable veloZ equal $(v_velocityProjectile*cos(v_incidentAngle))
fix DepositAtoms adAtomGroup deposit 1 2 $(v_StepsToDeposit) 82768 region insertRegion &
vx $(v_veloX) $(v_veloX) &
vy $(v_veloY) $(v_veloY) &
vz $(v_veloZ) $(v_veloZ) &
near 4 attempt 10 id next
run 29752


variable rndm equal random(-100.0,100.0,2863)
variable veloX equal $(v_velocityProjectile*sin(v_incidentAngle)*sin(0.0628*v_rndm))
variable veloY equal $(v_velocityProjectile*sin(v_incidentAngle)*cos(0.0628*v_rndm))
variable veloZ equal $(v_velocityProjectile*cos(v_incidentAngle))
fix DepositAtoms adAtomGroup deposit 1 2 $(v_StepsToDeposit) 84174 region insertRegion &
vx $(v_veloX) $(v_veloX) &
vy $(v_veloY) $(v_veloY) &
vz $(v_veloZ) $(v_veloZ) &
near 4 attempt 10 id next
run 29719


variable rndm equal random(-100.0,100.0,2384)
variable veloX equal $(v_velocityProjectile*sin(v_incidentAngle)*sin(0.0628*v_rndm))
variable veloY equal $(v_velocityProjectile*sin(v_incidentAngle)*cos(0.0628*v_rndm))
variable veloZ equal $(v_velocityProjectile*cos(v_incidentAngle))
fix DepositAtoms adAtomGroup deposit 1 2 $(v_StepsToDeposit) 79920 region insertRegion &
vx $(v_veloX) $(v_veloX) &
vy $(v_veloY) $(v_veloY) &
vz $(v_veloZ) $(v_veloZ) &
near 4 attempt 10 id next
run 29721


variable rndm equal random(-100.0,100.0,6482)
variable veloX equal $(v_velocityProjectile*sin(v_incidentAngle)*sin(0.0628*v_rndm))
variable veloY equal $(v_velocityProjectile*sin(v_incidentAngle)*cos(0.0628*v_rndm))
variable veloZ equal $(v_velocityProjectile*cos(v_incidentAngle))
fix DepositAtoms adAtomGroup deposit 1 2 $(v_StepsToDeposit) 63512 region insertRegion &
vx $(v_veloX) $(v_veloX) &
vy $(v_veloY) $(v_veloY) &
vz $(v_veloZ) $(v_veloZ) &
near 4 attempt 10 id next
run 29753


variable rndm equal random(-100.0,100.0,8878)
variable veloX equal $(v_velocityProjectile*sin(v_incidentAngle)*sin(0.0628*v_rndm))
variable veloY equal $(v_velocityProjectile*sin(v_incidentAngle)*cos(0.0628*v_rndm))
variable veloZ equal $(v_velocityProjectile*cos(v_incidentAngle))
fix DepositAtoms adAtomGroup deposit 1 2 $(v_StepsToDeposit) 18273 region insertRegion &
vx $(v_veloX) $(v_veloX) &
vy $(v_veloY) $(v_veloY) &
vz $(v_veloZ) $(v_veloZ) &
near 4 attempt 10 id next
run 29727


variable rndm equal random(-100.0,100.0,9810)
variable veloX equal $(v_velocityProjectile*sin(v_incidentAngle)*sin(0.0628*v_rndm))
variable veloY equal $(v_velocityProjectile*sin(v_incidentAngle)*cos(0.0628*v_rndm))
variable veloZ equal $(v_velocityProjectile*cos(v_incidentAngle))
fix DepositAtoms adAtomGroup deposit 1 2 $(v_StepsToDeposit) 97864 region insertRegion &
vx $(v_veloX) $(v_veloX) &
vy $(v_veloY) $(v_veloY) &
vz $(v_veloZ) $(v_veloZ) &
near 4 attempt 10 id next
run 29747

delete_atoms group all
undump ArDump
next i
jump SELF LOOP_START
