# GENERAL

processors 6 4 1
units metal
boundary p p f
atom_style atomic
atom_modify map array sort 10000 0.0


# VARIABLES

variable lattice_const equal "4.080"
variable substrateZmax equal "12.240"
variable substrateXmax equal "v_latticeConstant * 9 * sqrt(3) / sqrt(2)"
variable substrateYmax equal "v_latticeConstant * 12 / sqrt(2)"
variable xInsert equal "17.309974"
variable yInsert equal "22.486316"
variable zInsertMin equal "62.240"
variable zInsertMax equal "82.240"
variable zBoxMax equal "87.24"
variable zRemove equal "62.24"
variable typeNewAtom equal "2"
variable incidentmeV equal "25.852"
variable velocityProjectile "-sqrt(v_incidentmeV)*0.6947"
variable SurfaceTemp equal "300"
variable PlasmaTemp equal "300"
variable PlasmaPressure equal "1.000"
variable incidentAngle equal "0.520"
variable WaitTime equal something
variable MinDistance equal 6.0
print "--- Incident Angle: $(v_incidentAngle) rad, Surface Temperature: $(v_SurfaceTemp) K, Plasma Temperature: $(PlasmaTemp) K, Incident Energy: $(v_incidentmeV) meV, Pressure: $(v_PlasmaPressure) atm"


# REGIONS

region simulationBoxRegion block 0.0 ${substrateXmax} 0.0 ${substrateYmax} 0.0 ${zBoxMax}
region substrateAtomsRegion block 0.0 ${substrateXmax} 0.0 ${substrateYmax} 0.0 ${substrateZmax}
region mobileSubstrateAtomsRegion block 0.0 ${substrateXmax} 0.0 ${substrateYmax} 5.0 ${substrateZmax}
region insertRegion block 0.0 ${substrateXmax} 0.0 ${substrateYmax} ${zInsertMin} ${zInsertMax} side in
region bulkRegion block 0.0 ${substrateXmax} 0.0 ${substrateYmax} ${substrateZmax} ${zRemove}
create_box 2 simulationRegion


# GROUPS

group substrateGroup region substrateAtomsRegion
group mobileSubstrateAtomsGroup region mobileSubstrateAtomsRegion
group adAtomGroup type 2


# INTERACTION
    
pair_style hybrid lj/cut 12.0 born 13.0
pair_coeff 1 1 lj/cut 0.229400 2.629000
pair_coeff 1 2 born 3592.500000 0.349160 0.000000 44.990000 -2481.300000 13.000000
pair_coeff 2 2 lj/cut 0.010000 3.200000
fix bottomWall all wall/reflect zlo 0.0
mass 1 197
mass 2 40


# THERMOSTAT

thermo_modify   lost ignore flush yes
fix             substrateLV mobileSubstrateAtomsGroup langevin ${SurfaceTemp} ${SurfaceTemp} 1.0 ${rand}
fix             substrateNVE mobileSubstrateAtomsGroup nve
variable        positionCheck equal "v_zCoordinate > v_substrateZmax + 15.0"
fix             stoppingConditionFix all halt 1 v_positionCheck != 0 error continue
log             none
thermo          1000
compute         temperatureOfMobileAtoms mobileSubstrateAtomsGroup temp
thermo_style    custom step cpu c_temperatureOfMobileAtoms pe etotal 
thermo_modify   lost ignore flush yes
variable        numberOfAtoms equal count(all)
variable        xCoordinate equal x[v_numberOfAtoms]
variable        yCoordinate equal y[v_numberOfAtoms]
variable        zCoordinate equal z[v_numberOfAtoms]
variable        xVelo equal vx[v_numberOfAtoms]
variable        yVelo equal vy[v_numberOfAtoms]
variable        zVelo equal vz[v_numberOfAtoms]


# RUN

timestep 0.000250
fix adAtomNVEfix adAtomGroup nve
compute PotEnergy adAtomGroup pe/atom

variable RemoveCoord equal "v_zCoordParticle >= v_zRemove"
variable RemoveVelo equal "v_zVelocityParticle > 0"
variable RemoveCond equal $(v_RemoveCoord) && $(v_RemoveVelo)

"$(v_xCoordParticle) >= $(v_zRemove)" && "$(v_zVelocityParticle) > 0" then group DeleteAtom == $(v_ParticleID)


fix EvaporateAtoms DeleteAtom evaporate 1 100000 insertRegion 2 
fix DepositAtoms adAtomGroup deposit 1 2 v_WaitTime 123456 region insertRegion &
    vx $(v_velocityOfProjectile*sin(v_incidentAngle)*sin(0.0628*v_i)) &
    vy $(v_velocityOfProjectile*sin(v_incidentAngle)*cos(0.0628*v_i)) &
    vz $(v_velocityOfProjectile*cos(v_incidentAngle)) &
    near v_MinDistance attempt 10 id next
    
